NAME : cgl_57.8011.tour
COMMENT : Length = 8011
COMMENT : Found by LKH-3 [Keld Helsgaun] Fri Nov  8 17:38:20 2024
TYPE : TOUR
DIMENSION : 58
TOUR_SECTION
51
44
43
48
52
53
37
41
38
40
42
39
36
35
25
21
22
23
20
24
33
26
32
28
31
30
27
29
3
2
4
1
5
7
6
12
9
11
8
10
15
14
13
16
17
18
19
34
54
57
55
56
58
49
47
46
50
45
-1
EOF
